(set-info :smt-lib-version 2.6)
(set-logic QF_NIA)
(set-info :source |AProve team, see http://aprove.informatik.rwth-aachen.de/, submitted for SMT-COMP 2014|)
(set-info :category "industrial")
(set-info :status sat)
(declare-fun a__4 () Int)
(declare-fun a__2 () Int)
(declare-fun a__8 () Int)
(declare-fun a__12 () Int)
(declare-fun a__16 () Int)
(declare-fun a__19 () Int)
(declare-fun a__21 () Int)
(declare-fun a__24 () Int)
(declare-fun a__27 () Int)
(declare-fun a__29 () Int)
(declare-fun a__3 () Int)
(declare-fun a__7 () Int)
(declare-fun a__11 () Int)
(declare-fun a__15 () Int)
(declare-fun a__18 () Int)
(declare-fun a__20 () Int)
(declare-fun a__23 () Int)
(declare-fun a__26 () Int)
(declare-fun a__28 () Int)
(assert (and (>= (+ (* a__4 a__2) (* (- 0 1) a__2)) 0) (>= (+ (* a__8 a__2) (* (- 0 1) a__2)) 0) (>= (+ (* a__12 a__2) (* (- 0 1) a__2)) 0) (>= (+ (* a__16 a__2) (* (- 0 1) a__2)) 0) (>= (+ (* a__19 a__2) (* (- 0 1) a__2)) 0) (>= (+ (* a__21 a__2) (* (- 0 1) a__2)) 0) (>= (+ (* a__24 a__2) (* (- 0 1) a__2)) 0) (>= (+ (* a__27 a__2) (* (- 0 1) a__2)) 0) (>= (+ (* a__29 a__2) (* (- 0 1) a__2)) 0) (>= (* a__3 a__2) 0) (>= (* a__7 a__2) 0) (>= (* a__11 a__2) 0) (>= (* a__15 a__2) 0) (>= (* a__18 a__2) 0) (>= (* a__20 a__2) 0) (>= (* a__23 a__2) 0) (>= (* a__26 a__2) 0) (>= (* a__28 a__2) 0) (not (and (= (* a__3 a__2) 0) (= (* a__7 a__2) 0) (= (* a__11 a__2) 0) (= (* a__15 a__2) 0) (= (* a__18 a__2) 0) (= (* a__20 a__2) 0) (= (* a__23 a__2) 0) (= (* a__26 a__2) 0) (= (* a__28 a__2) 0))) (>= a__4 0) (>= a__2 0) (>= a__8 0) (>= a__12 0) (>= a__16 0) (>= a__19 0) (>= a__21 0) (>= a__24 0) (>= a__27 0) (>= a__29 0) (>= a__3 0) (>= a__7 0) (>= a__11 0) (>= a__15 0) (>= a__18 0) (>= a__20 0) (>= a__23 0) (>= a__26 0) (>= a__28 0)))
(check-sat)
;;(get-assignment)
;;(get-model)
(exit)
